* ENCODING=ISO-8859-1
NAME          CPLEX
ROWS
 N  obj1    
 G  c1      
 G  c2      
 G  c3      
 G  c4      
 G  c5      
 G  c6      
 G  c7      
 G  c8      
 G  c9      
 G  c10     
 G  c11     
 G  c12     
 G  c13     
 G  c14     
 G  c15     
 G  c16     
 G  c17     
 G  c18     
 G  c19     
 G  c20     
 G  c21     
 G  c22     
 G  c23     
 G  c24     
 G  c25     
 G  c26     
 G  c27     
 G  c28     
 G  c29     
 G  c30     
 G  c31     
 G  c32     
 G  c33     
 G  c34     
 G  c35     
COLUMNS
    MARK0000  'MARKER'                 'INTORG'
    x1        obj1                            1
    x1        c2                            474
    x1        c4                            323
    x1        c19                           550
    x1        c26                           266
    x1        c33                           692
    x1        c35                           359
    x2        obj1                            1
    x2        c2                            317
    x2        c20                           577
    x3        obj1                            1
    x3        c29                           119
    x3        c32                           716
    x3        c33                           382
    x4        obj1                            1
    x4        c6                            769
    x4        c7                            188
    x4        c26                           681
    x4        c28                           545
    x5        obj1                            1
    x5        c15                           799
    x5        c20                           473
    x5        c26                           313
    x5        c31                           959
    x5        c35                           706
    x6        obj1                            1
    x6        c10                           498
    x6        c14                           129
    x6        c19                           207
    x6        c21                           199
    x6        c33                           165
    x7        obj1                            1
    x7        c27                           266
    x7        c34                           748
    x8        obj1                            1
    x8        c9                            946
    x8        c10                           764
    x8        c11                           879
    x8        c21                           191
    x8        c22                           349
    x8        c27                           365
    x9        obj1                            1
    x9        c6                            163
    x9        c31                           880
    x9        c34                           613
    x10       obj1                            1
    x10       c1                            614
    x10       c3                            875
    x11       obj1                            1
    x11       c6                            654
    x11       c16                           316
    x11       c19                           752
    x11       c22                           978
    x11       c26                           823
    x12       obj1                            1
    x12       c11                           406
    x12       c13                           929
    x12       c14                           969
    x12       c29                           112
    x12       c35                           617
    x13       obj1                            1
    x13       c11                           541
    x13       c13                           108
    x13       c19                           942
    x13       c28                           891
    x13       c29                           519
    x13       c30                           325
    x14       obj1                            1
    x14       c2                            414
    x14       c12                           197
    x14       c22                           225
    x14       c30                           904
    x14       c33                           699
    x14       c34                           451
    x15       obj1                            1
    x15       c31                           165
    x16       obj1                            1
    x16       c8                            794
    x16       c28                           229
    x17       obj1                            1
    x17       c4                            775
    x17       c31                           169
    x18       obj1                            1
    x18       c1                            997
    x18       c11                           292
    x18       c27                           629
    x19       obj1                            1
    x19       c7                            725
    x19       c9                            441
    x19       c24                           813
    x19       c26                           579
    x19       c33                           940
    x20       obj1                            1
    x20       c4                            853
    x20       c10                           476
    x21       obj1                            1
    x21       c4                            828
    x21       c11                           290
    x21       c20                           884
    x21       c34                           599
    x22       obj1                            1
    x22       c30                           457
    x23       obj1                            1
    x23       c5                            864
    x23       c23                           732
    x23       c29                           269
    x24       obj1                            1
    x24       c3                            156
    x24       c6                            241
    x24       c13                           799
    x24       c22                           746
    x24       c23                           999
    x24       c27                           584
    x24       c31                           372
    x25       obj1                            1
    x25       c16                           807
    x25       c20                           297
    x26       obj1                            1
    x26       c16                           872
    x26       c20                           443
    x26       c31                           723
    x27       obj1                            1
    x27       c16                           583
    x27       c18                           830
    x27       c19                           984
    x28       obj1                            1
    x28       c9                            150
    x29       obj1                            1
    x29       c13                           948
    x29       c14                           840
    x29       c20                           377
    x29       c23                           236
    x30       obj1                            1
    x30       c1                            538
    x30       c9                            597
    x30       c11                           530
    x30       c13                           536
    x30       c24                           174
    x30       c34                           843
    x31       obj1                            1
    x31       c10                           603
    x31       c18                           757
    x31       c22                           239
    x31       c23                           593
    x31       c33                           340
    x32       obj1                            1
    x32       c3                            770
    x32       c13                           393
    x32       c33                           534
    x33       obj1                            1
    x33       c6                            514
    x33       c7                            966
    x33       c8                            345
    x33       c10                           477
    x33       c23                           821
    x33       c29                           161
    x34       obj1                            1
    x34       c14                           506
    x34       c25                           300
    x34       c27                           414
    x35       obj1                            1
    x35       c3                            697
    x35       c27                           204
    x36       obj1                            1
    x36       c1                            390
    x36       c14                           891
    x37       obj1                            1
    x37       c11                           245
    x37       c14                           190
    x37       c28                           565
    x38       obj1                            1
    x38       c6                            294
    x38       c10                           210
    x38       c12                           485
    x38       c16                           858
    x38       c20                           853
    x38       c21                           450
    x38       c23                           341
    x38       c26                           176
    x38       c28                           306
    x39       obj1                            1
    x39       c5                            932
    x39       c7                            690
    x39       c9                            813
    x39       c17                           347
    x39       c29                           987
    x39       c32                           928
    x40       obj1                            1
    x40       c3                            139
    x40       c31                           712
    x40       c33                           440
    x41       obj1                            1
    x41       c3                            860
    x41       c19                           766
    x41       c31                           687
    x42       obj1                            1
    x42       c2                            475
    x42       c8                            983
    x42       c12                           235
    x42       c16                           525
    x43       obj1                            1
    x43       c1                            309
    x43       c2                            382
    x43       c11                           320
    x43       c12                           774
    x43       c19                           323
    x43       c27                           492
    x44       obj1                            1
    x44       c16                           673
    x45       obj1                            1
    x45       c1                            333
    x45       c7                            970
    x46       obj1                            1
    x46       c3                            615
    x46       c5                            513
    x46       c18                           229
    x46       c22                           488
    x46       c25                           196
    x46       c30                           204
    x47       obj1                            1
    x47       c2                            136
    x47       c9                            786
    x47       c18                           169
    x47       c26                           943
    x47       c30                           119
    x48       obj1                            1
    x48       c4                            143
    x48       c5                            176
    x48       c8                            706
    x48       c9                            189
    x48       c23                           643
    x49       obj1                            1
    x49       c5                            711
    x49       c8                            802
    x49       c19                           392
    x49       c24                           784
    x49       c27                           908
    x49       c28                           534
    x49       c30                           830
    x50       obj1                            1
    x50       c15                           294
    x50       c18                           514
    x50       c22                           308
    x50       c34                           851
    x51       obj1                            1
    x51       c1                            240
    x51       c11                           644
    x51       c20                           827
    x51       c21                           361
    x51       c30                           918
    x52       obj1                            1
    x52       c2                            174
    x52       c5                            485
    x52       c7                            649
    x52       c10                           691
    x52       c17                           270
    x53       obj1                            1
    x53       c30                           215
    x53       c35                           812
    x54       obj1                            1
    x54       c3                            976
    x54       c5                            578
    x54       c7                            250
    x54       c29                           643
    x54       c32                           687
    x55       obj1                            1
    x55       c1                            972
    x55       c14                           851
    x55       c32                           336
    x56       obj1                            1
    x56       c31                           648
    x57       obj1                            1
    x57       c6                            307
    x57       c17                           168
    x57       c21                           486
    x57       c25                           623
    x57       c30                           397
    x57       c35                           219
    x58       obj1                            1
    x58       c6                            953
    x58       c17                           102
    x59       obj1                            1
    x59       c17                           114
    x59       c22                           950
    x59       c24                           920
    x60       obj1                            1
    x60       c1                            249
    x60       c35                           188
    x61       obj1                            1
    x61       c5                            566
    x61       c9                            182
    x61       c11                           874
    x62       obj1                            1
    x62       c15                           521
    x63       obj1                            1
    x63       c10                           405
    x63       c26                           322
    x64       obj1                            1
    x64       c2                            231
    x64       c13                           856
    x64       c15                           511
    x64       c19                           261
    x64       c23                           286
    x64       c30                           431
    x64       c31                           496
    x65       obj1                            1
    x65       c5                            780
    x65       c16                           131
    x65       c27                           409
    x65       c34                           883
    x66       obj1                            1
    x66       c8                            224
    x66       c23                           482
    x66       c25                           867
    x66       c33                           868
    x67       obj1                            1
    x67       c16                           597
    x67       c34                           113
    x68       obj1                            1
    x68       c6                            582
    x68       c13                           910
    x68       c24                           276
    x68       c32                          1000
    x68       c34                           662
    x69       obj1                            1
    x69       c14                           266
    x69       c16                           215
    x69       c32                           988
    x70       obj1                            1
    x70       c12                           385
    x70       c22                           614
    x70       c29                           517
    x70       c35                           445
    MARK0001  'MARKER'                 'INTEND'
RHS
    rhs       c1                           2321
    rhs       c2                           1302
    rhs       c3                           2544
    rhs       c4                           1461
    rhs       c5                           2803
    rhs       c6                           2239
    rhs       c7                           2219
    rhs       c8                           1927
    rhs       c9                           2052
    rhs       c10                          2062
    rhs       c11                          2511
    rhs       c12                          1038
    rhs       c13                          2740
    rhs       c14                          2321
    rhs       c15                          1063
    rhs       c16                          2789
    rhs       c17                           501
    rhs       c18                          1250
    rhs       c19                          2589
    rhs       c20                          2366
    rhs       c21                           844
    rhs       c22                          2449
    rhs       c23                          2567
    rhs       c24                          1484
    rhs       c25                           993
    rhs       c26                          2052
    rhs       c27                          2136
    rhs       c28                          1535
    rhs       c29                          1664
    rhs       c30                          2400
    rhs       c31                          2906
    rhs       c32                          2328
    rhs       c33                          2530
    rhs       c34                          2882
    rhs       c35                          1673
BOUNDS
 LI bnd       x1        0
 LI bnd       x2        0
 LI bnd       x3        0
 LI bnd       x4        0
 LI bnd       x5        0
 LI bnd       x6        0
 LI bnd       x7        0
 LI bnd       x8        0
 LI bnd       x9        0
 LI bnd       x10       0
 LI bnd       x11       0
 LI bnd       x12       0
 LI bnd       x13       0
 LI bnd       x14       0
 LI bnd       x15       0
 LI bnd       x16       0
 LI bnd       x17       0
 LI bnd       x18       0
 LI bnd       x19       0
 LI bnd       x20       0
 LI bnd       x21       0
 LI bnd       x22       0
 LI bnd       x23       0
 LI bnd       x24       0
 LI bnd       x25       0
 LI bnd       x26       0
 LI bnd       x27       0
 LI bnd       x28       0
 LI bnd       x29       0
 LI bnd       x30       0
 LI bnd       x31       0
 LI bnd       x32       0
 LI bnd       x33       0
 LI bnd       x34       0
 LI bnd       x35       0
 LI bnd       x36       0
 LI bnd       x37       0
 LI bnd       x38       0
 LI bnd       x39       0
 LI bnd       x40       0
 LI bnd       x41       0
 LI bnd       x42       0
 LI bnd       x43       0
 LI bnd       x44       0
 LI bnd       x45       0
 LI bnd       x46       0
 LI bnd       x47       0
 LI bnd       x48       0
 LI bnd       x49       0
 LI bnd       x50       0
 LI bnd       x51       0
 LI bnd       x52       0
 LI bnd       x53       0
 LI bnd       x54       0
 LI bnd       x55       0
 LI bnd       x56       0
 LI bnd       x57       0
 LI bnd       x58       0
 LI bnd       x59       0
 LI bnd       x60       0
 LI bnd       x61       0
 LI bnd       x62       0
 LI bnd       x63       0
 LI bnd       x64       0
 LI bnd       x65       0
 LI bnd       x66       0
 LI bnd       x67       0
 LI bnd       x68       0
 LI bnd       x69       0
 LI bnd       x70       0
ENDATA
